(set-logic QF_S)
(declare-fun var_0xINPUT_122068 () String)
(assert (and (= (len var_0xINPUT_122068) 0) (= (len var_0xINPUT_122068) 0) (not (= var_0xINPUT_122068 "pVEECEXk2p"))))
(check-sat var_0xINPUT_122068)